* ENCODING=ISO-8859-1
NAME          CPLEX
ROWS
 N  obj1    
 G  c1      
 G  c2      
 G  c3      
 G  c4      
 G  c5      
 G  c6      
 G  c7      
 G  c8      
 G  c9      
 G  c10     
 G  c11     
 G  c12     
 G  c13     
 G  c14     
 G  c15     
 G  c16     
 G  c17     
 G  c18     
 G  c19     
 G  c20     
 G  c21     
 G  c22     
 G  c23     
 G  c24     
 G  c25     
 G  c26     
 G  c27     
 G  c28     
 G  c29     
 G  c30     
 G  c31     
 G  c32     
 G  c33     
 G  c34     
 G  c35     
COLUMNS
    MARK0000  'MARKER'                 'INTORG'
    x1        obj1                            1
    x1        c3                            425
    x1        c29                           371
    x1        c35                           975
    x2        obj1                            1
    x2        c8                            159
    x2        c31                           576
    x3        obj1                            1
    x3        c2                            289
    x3        c17                           570
    x3        c23                           526
    x4        obj1                            1
    x4        c3                            596
    x4        c14                           949
    x4        c18                           567
    x5        obj1                            1
    x5        c4                            533
    x5        c5                            493
    x5        c9                            605
    x5        c18                           408
    x5        c21                           156
    x5        c29                           196
    x6        obj1                            1
    x6        c5                            142
    x6        c26                           586
    x6        c28                           768
    x7        obj1                            1
    x7        c3                            480
    x7        c10                           345
    x7        c12                           595
    x8        obj1                            1
    x8        c1                            477
    x8        c17                           595
    x8        c24                           453
    x8        c25                           326
    x8        c27                           187
    x8        c30                           361
    x9        obj1                            1
    x9        c29                           682
    x9        c33                           527
    x10       obj1                            1
    x10       c11                           770
    x10       c26                           621
    x10       c28                           812
    x10       c31                           874
    x10       c34                           831
    x11       obj1                            1
    x11       c2                            440
    x11       c15                           879
    x11       c22                           719
    x11       c24                           518
    x11       c29                           730
    x11       c33                           820
    x12       obj1                            1
    x12       c14                           348
    x12       c30                           735
    x13       obj1                            1
    x13       c33                           645
    x14       obj1                            1
    x14       c21                           120
    x14       c24                           385
    x15       obj1                            1
    x15       c1                            688
    x15       c2                            386
    x15       c5                            894
    x15       c22                           701
    x15       c24                           869
    x15       c28                           654
    x15       c31                           819
    x16       obj1                            1
    x16       c2                            772
    x16       c17                           964
    x16       c18                           439
    x16       c27                           503
    x17       obj1                            1
    x17       c5                            281
    x17       c26                           897
    x17       c30                           761
    x18       obj1                            1
    x18       c13                           953
    x18       c21                           250
    x18       c28                           799
    x18       c34                           322
    x19       obj1                            1
    x19       c20                           750
    x19       c27                           525
    x19       c28                           538
    x19       c32                           644
    x20       obj1                            1
    x20       c8                            881
    x20       c22                           302
    x20       c26                           310
    x20       c27                           932
    x20       c35                           706
    x21       obj1                            1
    x21       c6                            709
    x21       c15                           805
    x21       c26                           204
    x21       c33                           864
    x22       obj1                            1
    x22       c13                           262
    x22       c28                           771
    x23       obj1                            1
    x23       c9                            660
    x23       c14                           718
    x23       c26                           994
    x24       obj1                            1
    x24       c1                            683
    x24       c2                            306
    x24       c5                            669
    x24       c16                           220
    x25       obj1                            1
    x25       c25                           461
    x25       c27                           364
    x26       obj1                            1
    x26       c12                           142
    x26       c33                           498
    x27       obj1                            1
    x27       c16                           514
    x28       obj1                            1
    x28       c15                           783
    x28       c22                           751
    x28       c25                           452
    x28       c29                           226
    x29       obj1                            1
    x29       c33                           164
    x30       obj1                            1
    x30       c9                            386
    x30       c23                           872
    x31       obj1                            1
    x31       c9                            405
    x31       c13                           869
    x31       c15                           977
    x31       c16                           423
    x31       c32                           421
    x32       obj1                            1
    x32       c1                            185
    x32       c28                           571
    x32       c34                           803
    x33       obj1                            1
    x33       c4                            948
    x33       c11                           576
    x34       obj1                            1
    x34       c8                            309
    x34       c13                           617
    x35       obj1                            1
    x35       c3                            206
    x36       obj1                            1
    x36       c3                            137
    x36       c12                           418
    x36       c17                           559
    x36       c31                           326
    x37       obj1                            1
    x37       c14                           662
    x37       c16                           649
    x37       c18                           390
    x37       c31                           930
    x38       obj1                            1
    x38       c3                            584
    x38       c7                            791
    x38       c11                           860
    x38       c20                           504
    x38       c23                           901
    x39       obj1                            1
    x39       c5                            769
    x40       obj1                            1
    x40       c9                            902
    x40       c14                           999
    x40       c16                           101
    x40       c23                           816
    x40       c27                           737
    x41       obj1                            1
    x41       c5                            604
    x41       c10                           293
    x41       c13                           232
    x41       c14                           998
    x41       c16                           469
    x41       c17                           865
    x41       c21                           141
    x41       c30                           793
    x42       obj1                            1
    x42       c6                            388
    x42       c7                            357
    x42       c10                           105
    x42       c11                           234
    x42       c27                           212
    x43       obj1                            1
    x43       c7                            871
    x44       obj1                            1
    x44       c3                            993
    x44       c8                            413
    x44       c11                           719
    x44       c17                           782
    x45       obj1                            1
    x45       c11                           344
    x45       c15                           288
    x45       c18                           806
    x45       c21                           136
    x45       c24                           543
    x46       obj1                            1
    x46       c9                            291
    x46       c15                           689
    x46       c17                           350
    x46       c24                           395
    x47       obj1                            1
    x47       c13                           431
    x48       obj1                            1
    x48       c15                           680
    x48       c19                           583
    x48       c33                           865
    x49       obj1                            1
    x49       c5                            264
    x49       c23                           250
    x50       obj1                            1
    x50       c6                            800
    x50       c14                           639
    x50       c20                           368
    x50       c21                           657
    x50       c30                           574
    x50       c32                           715
    x51       obj1                            1
    x51       c5                            846
    x51       c15                           105
    x51       c19                           235
    x52       obj1                            1
    x52       c2                            457
    x52       c5                            313
    x52       c11                           102
    x53       obj1                            1
    x53       c1                            704
    x53       c12                           180
    x53       c13                           599
    x53       c16                           856
    x53       c30                           575
    x53       c32                           206
    x54       obj1                            1
    x54       c10                           779
    x54       c18                           495
    x55       obj1                            1
    x55       c4                            401
    x55       c18                           883
    x55       c21                           207
    x55       c23                           943
    x55       c30                           520
    x55       c31                           574
    x56       obj1                            1
    x56       c25                           982
    x56       c35                           483
    x57       obj1                            1
    x57       c16                           408
    x57       c26                           122
    x57       c34                           722
    x58       obj1                            1
    x58       c4                            961
    x58       c14                           561
    x58       c17                           933
    x59       obj1                            1
    x59       c4                            687
    x59       c20                           413
    x59       c31                           275
    x60       obj1                            1
    x60       c1                            770
    x60       c8                            979
    x61       obj1                            1
    x61       c2                            585
    x61       c9                            937
    x61       c11                           556
    x61       c16                           677
    x61       c19                           497
    x61       c23                           534
    x61       c27                           484
    x62       obj1                            1
    x62       c1                            341
    x62       c6                            456
    x62       c8                            861
    x62       c15                           587
    x62       c30                           617
    x62       c33                           603
    x63       obj1                            1
    x63       c30                           883
    x64       obj1                            1
    x64       c3                            418
    x64       c7                            894
    x64       c9                            356
    x64       c11                           202
    x64       c15                           679
    x64       c33                           354
    x65       obj1                            1
    x65       c21                           711
    x65       c28                           612
    x66       obj1                            1
    x66       c1                            842
    x66       c4                            973
    x66       c19                           943
    x66       c35                           736
    x67       obj1                            1
    x67       c3                            386
    x67       c12                           581
    x67       c17                           321
    x67       c18                           163
    x67       c19                           278
    x67       c29                           205
    x67       c35                           148
    x68       obj1                            1
    x68       c4                            208
    x69       obj1                            1
    x69       c1                            657
    x70       obj1                            1
    x70       c6                            698
    x70       c12                           148
    x70       c28                           746
    MARK0001  'MARKER'                 'INTEND'
RHS
    rhs       c1                           2674
    rhs       c2                           1618
    rhs       c3                           2113
    rhs       c4                           2356
    rhs       c5                           2638
    rhs       c6                           1526
    rhs       c7                           1457
    rhs       c8                           1801
    rhs       c9                           2271
    rhs       c10                           761
    rhs       c11                          2182
    rhs       c12                          1032
    rhs       c13                          1982
    rhs       c14                          2937
    rhs       c15                          3236
    rhs       c16                          2159
    rhs       c17                          2970
    rhs       c18                          2076
    rhs       c19                          1268
    rhs       c20                          1018
    rhs       c21                          1189
    rhs       c22                          1237
    rhs       c23                          2421
    rhs       c24                          1582
    rhs       c25                          1111
    rhs       c26                          1867
    rhs       c27                          1972
    rhs       c28                          3136
    rhs       c29                          1205
    rhs       c30                          2910
    rhs       c31                          2187
    rhs       c32                           993
    rhs       c33                          2670
    rhs       c34                          1339
    rhs       c35                          1524
BOUNDS
 LI bnd       x1        0
 LI bnd       x2        0
 LI bnd       x3        0
 LI bnd       x4        0
 LI bnd       x5        0
 LI bnd       x6        0
 LI bnd       x7        0
 LI bnd       x8        0
 LI bnd       x9        0
 LI bnd       x10       0
 LI bnd       x11       0
 LI bnd       x12       0
 LI bnd       x13       0
 LI bnd       x14       0
 LI bnd       x15       0
 LI bnd       x16       0
 LI bnd       x17       0
 LI bnd       x18       0
 LI bnd       x19       0
 LI bnd       x20       0
 LI bnd       x21       0
 LI bnd       x22       0
 LI bnd       x23       0
 LI bnd       x24       0
 LI bnd       x25       0
 LI bnd       x26       0
 LI bnd       x27       0
 LI bnd       x28       0
 LI bnd       x29       0
 LI bnd       x30       0
 LI bnd       x31       0
 LI bnd       x32       0
 LI bnd       x33       0
 LI bnd       x34       0
 LI bnd       x35       0
 LI bnd       x36       0
 LI bnd       x37       0
 LI bnd       x38       0
 LI bnd       x39       0
 LI bnd       x40       0
 LI bnd       x41       0
 LI bnd       x42       0
 LI bnd       x43       0
 LI bnd       x44       0
 LI bnd       x45       0
 LI bnd       x46       0
 LI bnd       x47       0
 LI bnd       x48       0
 LI bnd       x49       0
 LI bnd       x50       0
 LI bnd       x51       0
 LI bnd       x52       0
 LI bnd       x53       0
 LI bnd       x54       0
 LI bnd       x55       0
 LI bnd       x56       0
 LI bnd       x57       0
 LI bnd       x58       0
 LI bnd       x59       0
 LI bnd       x60       0
 LI bnd       x61       0
 LI bnd       x62       0
 LI bnd       x63       0
 LI bnd       x64       0
 LI bnd       x65       0
 LI bnd       x66       0
 LI bnd       x67       0
 LI bnd       x68       0
 LI bnd       x69       0
 LI bnd       x70       0
ENDATA
